p cnf 127 451
-3 1 0
-3 2 0
-1 -2 3 0
1 3 -4 0
-1 -3 -4 0
1 -3 4 0
-1 3 4 0
-7 5 0
-7 -6 0
-5 6 7 0
4 7 -8 0
-4 -7 -8 0
4 -7 8 0
-4 7 8 0
-9 3 0
-9 8 0
-3 -8 9 0
10 3 0
10 9 0
-3 -9 -10 0
13 11 0
13 -12 0
-11 12 -13 0
13 7 -14 0
-13 -7 -14 0
13 -7 14 0
-13 7 14 0
-10 14 -15 0
10 -14 -15 0
-10 -14 15 0
10 14 15 0
-16 17 -18 0
16 -17 -18 0
-16 -17 18 0
16 17 18 0
19 -1 0
19 -18 0
1 18 -19 0
-20 -19 0
-20 9 0
19 -9 20 0
-21 15 0
-21 -20 0
-15 20 21 0
23 -6 0
23 22 0
6 -22 -23 0
-24 -13 0
-24 23 0
13 -23 24 0
-25 6 0
-25 -24 0
-6 24 25 0
26 -25 0
26 -8 0
25 8 -26 0
-28 26 0
-28 27 0
-26 -27 28 0
-29 17 0
-29 25 0
-17 -25 29 0
-32 -31 0
-32 -24 0
31 24 32 0
-34 31 0
-34 -33 0
-31 33 34 0
35 32 0
35 -34 0
-32 34 -35 0
-1 35 -36 0
1 -35 -36 0
-1 -35 36 0
1 35 36 0
37 -30 0
37 36 0
30 -36 -37 0
-38 -29 0
-38 -37 0
29 37 38 0
39 12 0
39 -11 0
-12 11 -39 0
-39 -18 -40 0
39 18 -40 0
-39 18 40 0
39 -18 40 0
-41 -8 0
-41 -7 0
8 7 41 0
42 -40 0
42 -41 0
40 41 -42 0
-43 -38 0
-43 42 0
38 -42 43 0
-45 44 0
-45 16 0
-44 -16 45 0
2 -17 -46 0
-2 17 -46 0
2 17 46 0
-2 -17 46 0
-47 -46 0
-47 -12 0
46 12 47 0
-48 47 0
-48 -24 0
-47 24 48 0
45 -48 -49 0
-45 48 -49 0
45 48 49 0
-45 -48 49 0
-43 -49 -50 0
43 49 -50 0
-43 49 50 0
43 -49 50 0
-51 -28 0
-51 -50 0
28 50 51 0
52 21 0
52 -51 0
-21 51 -52 0
-53 8 0
-53 -34 0
-8 34 53 0
-54 13 0
-54 -12 0
-13 12 54 0
34 -5 -55 0
-34 5 -55 0
34 5 55 0
-34 -5 55 0
-56 -54 0
-56 -55 0
54 55 56 0
-9 -19 -57 0
9 19 -57 0
-9 19 57 0
9 -19 57 0
58 -2 0
58 12 0
2 -12 -58 0
-4 -58 -59 0
4 58 -59 0
-4 58 59 0
4 -58 59 0
-57 -59 -60 0
57 59 -60 0
-57 59 60 0
57 -59 60 0
19 33 -61 0
-19 -33 -61 0
19 -33 61 0
-19 33 61 0
47 -40 -62 0
-47 40 -62 0
47 40 62 0
-47 -40 62 0
63 2 0
63 35 0
-2 -35 -63 0
64 12 0
64 22 0
-12 -22 -64 0
65 17 0
65 -64 0
-17 64 -65 0
-66 -63 0
-66 65 0
63 -65 66 0
67 -62 0
67 -66 0
62 66 -67 0
68 -23 0
68 -64 0
23 64 -68 0
25 5 -69 0
-25 -5 -69 0
25 -5 69 0
-25 5 69 0
-22 -69 -70 0
22 69 -70 0
-22 69 70 0
22 -69 70 0
71 68 0
71 70 0
-68 -70 -71 0
67 -71 -72 0
-67 71 -72 0
67 71 72 0
-67 -71 72 0
-73 -61 0
-73 -72 0
61 72 73 0
74 6 0
74 -11 0
-6 11 -74 0
-44 -39 -75 0
44 39 -75 0
-44 39 75 0
44 -39 75 0
74 75 -76 0
-74 -75 -76 0
74 -75 76 0
-74 75 76 0
77 -73 0
77 76 0
73 -76 -77 0
39 -11 -78 0
-39 11 -78 0
39 11 78 0
-39 -11 78 0
-79 -78 0
-79 5 0
78 -5 79 0
-1 -79 -80 0
1 79 -80 0
-1 79 80 0
1 -79 80 0
30 -80 -81 0
-30 80 -81 0
30 80 81 0
-30 -80 81 0
-81 45 -82 0
81 -45 -82 0
-81 -45 82 0
81 45 82 0
-83 77 0
-83 82 0
-77 -82 83 0
84 60 0
84 83 0
-60 -83 -84 0
85 56 0
85 -84 0
-56 84 -85 0
86 53 0
86 -85 0
-53 85 -86 0
87 30 0
87 -9 0
-30 9 -87 0
-88 39 0
-88 -39 0
-2 7 -89 0
2 -7 -89 0
-2 -7 89 0
2 7 89 0
89 17 -90 0
-89 -17 -90 0
89 -17 90 0
-89 17 90 0
-90 -64 -91 0
90 64 -91 0
-90 64 91 0
90 -64 91 0
92 -2 0
92 91 0
2 -91 -92 0
93 88 0
93 92 0
-88 -92 -93 0
94 87 0
94 93 0
-87 -93 -94 0
-95 17 0
-95 -1 0
-17 1 95 0
96 -95 0
96 5 0
95 -5 -96 0
-96 -19 -97 0
96 19 -97 0
-96 19 97 0
96 -19 97 0
98 -94 0
98 97 0
94 -97 -98 0
99 89 0
99 58 0
-89 -58 -99 0
-100 -99 0
-100 30 0
99 -30 100 0
13 3 -101 0
-13 -3 -101 0
13 -3 101 0
-13 3 101 0
-75 101 -102 0
75 -101 -102 0
-75 -101 102 0
75 101 102 0
-103 102 0
-103 12 0
-102 -12 103 0
104 -100 0
104 103 0
100 -103 -104 0
-105 22 0
-105 64 0
-22 -64 105 0
106 104 0
106 105 0
-104 -105 -106 0
-107 98 0
-107 106 0
-98 -106 107 0
108 95 0
108 -33 0
-95 33 -108 0
-79 -33 -109 0
79 33 -109 0
-79 33 109 0
79 -33 109 0
110 -108 0
110 -109 0
108 109 -110 0
111 -78 0
111 -34 0
78 34 -111 0
-112 -111 0
-112 -75 0
111 75 112 0
110 -112 -113 0
-110 112 -113 0
110 112 113 0
-110 -112 113 0
-114 -107 0
-114 -113 0
107 113 114 0
-19 -9 -115 0
19 9 -115 0
-19 9 115 0
19 -9 115 0
116 19 0
116 34 0
-19 -34 -116 0
-117 -115 0
-117 -116 0
115 116 117 0
114 117 -118 0
-114 -117 -118 0
114 -117 118 0
-114 117 118 0
-119 -86 0
-119 -118 0
86 118 119 0
120 -44 0
120 91 0
44 -91 -120 0
-121 -31 0
-121 8 0
31 -8 121 0
122 75 0
122 25 0
-75 -25 -122 0
-123 122 0
-123 -39 0
-122 39 123 0
-124 121 0
-124 123 0
-121 -123 124 0
-120 124 -125 0
120 -124 -125 0
-120 -124 125 0
120 124 125 0
119 125 -126 0
-119 -125 -126 0
119 -125 126 0
-119 125 126 0
127 -52 0
127 126 0
52 -126 -127 0
-108 -5 -112 -65 0
45 11 124 40 99 0
-19 96 0
59 43 -124 0
61 36 75 0
-95 11 -17 27 0
4 -23 12 -69 0
46 41 47 69 43 57 0
-29 71 64 0
82 21 -3 -66 78 -85 0
-35 120 -100 -65 60 28 0
108 -89 0
-89 -56 -116 0
91 -100 0
-78 -82 -35 125 109 0
64 1 80 20 -3 49 0
113 37 68 -111 -24 21 0
28 -92 -83 119 0
8 -35 115 0
-85 -41 76 0
-97 -47 13 -41 31 66 0
-23 20 65 -78 31 0
-113 -2 0
-66 -15 -54 0
-27 9 -2 0
-105 25 0
64 7 95 39 118 0
109 90 0
-124 56 29 0
-81 -53 58 92 57 74 0
-26 63 55 0
26 5 61 41 -77 67 0
-109 -57 102 41 -89 -52 0
6 -102 -108 0
101 -50 -102 12 0
-29 126 109 -118 -17 -105 0
-121 -96 33 -3 -111 60 0
105 1 -69 -51 -19 -35 0
127 61 -25 7 -15 0
-53 -118 -19 -88 -65 0
82 -52 32 83 0
32 75 -27 21 108 117 0
-18 79 0
-111 -21 83 120 -122 0
-61 -55 0
-13 -94 35 0
-1 -31 94 0
-66 -9 -107 7 -17 0
13 44 0
101 71 -30 -31 17 0
41 -100 11 -113 37 0
-93 -109 0
-70 -24 53 -50 -42 0
82 -23 10 122 64 -51 0
94 -105 -49 80 -76 -51 0
-35 47 -21 4 113 0
60 45 -78 0
73 -71 -14 -42 118 0
50 30 -119 0
-84 -26 0
-17 27 -105 -10 46 79 0
-37 -23 0
-18 -66 -127 2 -105 17 0
78 70 85 5 -33 50 0
37 -127 42 12 0
-4 89 -71 -69 -6 -62 0
3 -52 -28 -66 -84 0
-73 121 -35 0
-122 74 0
40 -95 35 -43 -96 10 0
-2 63 62 -96 -105 123 0
-69 70 0
-74 -93 7 -101 -116 0
-5 59 -58 -100 -54 0
115 -63 0
127 0
